mass           6    16.04 # CH4
pair_coeff     6    6    0.294100        3.730000 # CH4 CH4

improper_coeff    1        2.000000        1.000000       -1.000000        0.000000               0 # C_R C_R C_R N_R
