mass           7    16.04 # CH4
pair_coeff     7    7    0.294100        3.730000 # CH4 CH4

angle_coeff   1                      fourier       57.339338        0.343737        0.374972        0.281246 # Cu3f2 Cu3f2 O_2
angle_coeff   2                      fourier      148.822143        0.343737        0.374972        0.281246 # O_2 Cu3f2 O_2
angle_coeff   3              cosine/periodic      120.000516              -1               3 # C_R N_R C_R
angle_coeff   4              cosine/periodic      106.782348              -1               3 # C_R N_R C_3
angle_coeff   5              cosine/periodic       61.771810              -1               3 # Cu3f2 O_2 C_R
angle_coeff   6              cosine/periodic      206.778426              -1               3 # O_2 C_R O_2
angle_coeff   7              cosine/periodic      137.714246              -1               3 # O_2 C_R C_R
angle_coeff   8              cosine/periodic      102.183280              -1               3 # C_R C_R C_R
angle_coeff   9              cosine/periodic      111.297508              -1               3 # C_R C_R C_R
angle_coeff  10              cosine/periodic       57.289016              -1               3 # C_R C_R H_
angle_coeff  11              cosine/periodic      153.699352              -1               3 # N_R C_R C_R
angle_coeff  12                      fourier      303.594562        0.343737        0.374972        0.281246 # N_R C_3 C_3
angle_coeff  13                      fourier      214.211821        0.343737        0.374972        0.281246 # C_3 C_3 C_3
angle_coeff  14                      fourier      117.318683        0.343737        0.374972        0.281246 # C_3 C_3 H_

improper_coeff    1        2.000000        1.000000       -1.000000        0.000000               0 # C_R N_R C_R C_3
