mass           7    16.04 # CH4
pair_coeff     7    7    0.294100        3.730000 # CH4 CH4

angle_coeff    1              cosine/periodic      137.714246              -1               3 # C_R C_R O_2
angle_coeff    2              cosine/periodic      206.778426              -1               3 # O_2 C_R O_2
angle_coeff    3              cosine/periodic      102.183280              -1               3 # C_R C_R C_R
angle_coeff    4              cosine/periodic      111.297508              -1               3 # C_R C_R C_R
angle_coeff    5              cosine/periodic       57.289016              -1               3 # C_R C_R H_
angle_coeff    6              cosine/periodic       39.441082              -1               3 # C_R O_2 Zn2f2
angle_coeff    7              cosine/periodic       17.706467              -1               3 # Zn2f2 O_2 H_
angle_coeff    8              cosine/periodic       44.863234              -1               3 # H_ O_2 H_
angle_coeff    9              cosine/periodic       46.978550              -1               3 # O_2 Zn2f2 O_2
angle_coeff   10              cosine/periodic       13.328014              -1               3 # O_2 Zn2f2 Zn2f2
angle_coeff   11              cosine/periodic       55.506670              -1               3 # O_2 Zn2f2 N_R
angle_coeff   12              cosine/periodic       15.376901              -1               3 # Zn2f2 Zn2f2 N_R
angle_coeff   13              cosine/periodic      153.699352              -1               3 # C_R C_R N_R
angle_coeff   14              cosine/periodic       79.786967              -1               3 # N_R C_R H_
angle_coeff   15              cosine/periodic      212.442573              -1               3 # N_R C_R N_R
angle_coeff   16              cosine/periodic       41.111398              -1               3 # Zn2f2 N_R C_R
angle_coeff   17              cosine/periodic      120.000516              -1               3 # C_R N_R C_R
angle_coeff   18              cosine/periodic      106.782348              -1               3 # C_R N_R C_3
angle_coeff   19                      fourier      170.007371        0.343737        0.374972        0.281246 # N_R C_3 H_
angle_coeff   20                      fourier      312.548166        0.343737        0.374972        0.281246 # N_R C_3 C_R
angle_coeff   21                      fourier       75.498766        0.343737        0.374972        0.281246 # H_ C_3 H_
angle_coeff   22                      fourier      121.777217        0.343737        0.374972        0.281246 # H_ C_3 C_R
angle_coeff   23              cosine/periodic       99.137149              -1               3 # C_3 C_R C_R


improper_coeff    1        2.000000        1.000000       -1.000000        0.000000               0 # C_R C_R O_2 O_2
