mass           8    16.04 # CH4

pair_coeff     8    8    0.294100        3.730000 # CH4 CH4

improper_coeff    1        2.000000        1.000000       -1.000000        0.000000               0 # C_R C_R O_2 O_2

angle_coeff   1              cosine/periodic      137.714246              -1               3 # C_R C_R O_2
angle_coeff   2              cosine/periodic      206.778426              -1               3 # O_2 C_R O_2
angle_coeff   3              cosine/periodic      102.183280              -1               3 # C_R C_R C_R
angle_coeff   4              cosine/periodic      111.297508              -1               3 # C_R C_R C_R
angle_coeff   5              cosine/periodic       57.289016              -1               3 # C_R C_R H_
angle_coeff   6              cosine/periodic       39.441082              -1               3 # C_R O_2 Zn2f2
angle_coeff   7              cosine/periodic       17.706467              -1               3 # Zn2f2 O_2 H_
angle_coeff   8              cosine/periodic       44.863234              -1               3 # H_ O_2 H_
angle_coeff   9              cosine/periodic       46.978550              -1               3 # O_2 Zn2f2 O_2
angle_coeff  10              cosine/periodic       13.328014              -1               3 # O_2 Zn2f2 Zn2f2
angle_coeff  11              cosine/periodic       55.466920              -1               3 # O_2 Zn2f2 N_3
angle_coeff  12              cosine/periodic       15.369924              -1               3 # Zn2f2 Zn2f2 N_3
angle_coeff  13                      fourier      103.544874        0.317506        0.313225        0.272502 # Zn2f2 N_3 C_2
angle_coeff  14                      fourier      101.876823        0.317506        0.313225        0.272502 # Zn2f2 N_3 C_3
angle_coeff  15                      fourier      267.657505        0.317506        0.313225        0.272502 # C_2 N_3 C_3
angle_coeff  16                      fourier      260.869388        0.317506        0.313225        0.272502 # C_3 N_3 C_3
angle_coeff  17              cosine/periodic      125.395432              -1               3 # N_3 C_2 C_3
angle_coeff  18              cosine/periodic       71.407473              -1               3 # N_3 C_2 H_
angle_coeff  19              cosine/periodic       49.433937              -1               3 # C_3 C_2 H_
angle_coeff  20                      fourier      311.265699        0.343737        0.374972        0.281246 # C_2 C_3 N_3
angle_coeff  21                      fourier      121.290688        0.343737        0.374972        0.281246 # C_2 C_3 H_
angle_coeff  22                      fourier      169.780468        0.343737        0.374972        0.281246 # N_3 C_3 H_
angle_coeff  23                      fourier       75.498766        0.343737        0.374972        0.281246 # H_ C_3 H_
angle_coeff  24                      fourier      303.297032        0.343737        0.374972        0.281246 # N_3 C_3 C_3
angle_coeff  25                      fourier      117.318683        0.343737        0.374972        0.281246 # C_3 C_3 H_
